NAME crossbreeding_srl_ilp
* Max problem is converted into Min one
ROWS
 N  OBJ
 L  constraint1_5490
 L  constraint2_5490
 L  constraint2_5491
 L  constraint2_5492
 L  constraint2_5493
COLUMNS
    MARKER    'MARKER'                 'INTORG'
    Z_549_0_0  OBJ       -3.0973397193866201e-04
    Z_549_0_0  constraint1_5490  1
    Z_549_0_0  constraint2_5490  1
    Z_549_0_1  OBJ       -1.9886614187419505e-03
    Z_549_0_1  constraint1_5490  1
    Z_549_0_1  constraint2_5491  1
    Z_549_0_2  OBJ       -6.8251643608661194e-01
    Z_549_0_2  constraint1_5490  1
    Z_549_0_2  constraint2_5492  1
    Z_549_0_3  OBJ       -9.1614775274913697e-04
    Z_549_0_3  constraint1_5490  1
    Z_549_0_3  constraint2_5493  1
    Z_549_0_4  OBJ       -2.1426902076995843e-01
    Z_549_0_4  constraint1_5490  1
    MARKER    'MARKER'                 'INTEND'
RHS
    RHS1      constraint1_5490  1
    RHS1      constraint2_5490  1
    RHS1      constraint2_5491  1
    RHS1      constraint2_5492  1
    RHS1      constraint2_5493  1
BOUNDS
 UP BND1      Z_549_0_0  1
 UP BND1      Z_549_0_1  1
 UP BND1      Z_549_0_2  1
 UP BND1      Z_549_0_3  1
 UP BND1      Z_549_0_4  1
ENDATA
